10
10
1010005
0
0
90 14 38 40 3 21 33 9 45 65 
1
0
83 12 41 38 5 14 33 12 52 67 
2
0
91 18 40 37 9 18 36 14 47 68 
3
0
87 22 43 40 7 13 33 14 43 67 
4
0
91 15 37 44 10 11 31 12 41 68 
5
0
84 15 37 45 8 17 26 10 48 60 
6
0
89 20 32 41 7 15 28 17 48 66 
7
0
89 23 39 43 6 19 31 18 48 62 
8
0
86 22 41 43 5 15 32 12 51 57 
9
0
81 22 41 38 7 20 31 15 50 62 
